c SAT Generator for power-law distributed variable frequencies
c -g u -v 20 -c 91 -k 3 -p 2.750000 -b 3.200000 -f /home/schmidt/Devel/ni-kop-sat/data/ensemble/ruf20-91/ruf20-91-556 -u 1 -U 1 -s 3645576961
p cnf 20 91
1 2 9 0
1 4 11 0
12 13 -16 0
4 6 -7 0
1 12 -17 0
8 16 17 0
5 -13 19 0
10 -14 17 0
4 8 -20 0
-4 -9 15 0
4 -6 -18 0
5 11 -18 0
-2 12 -15 0
-5 -6 18 0
1 -10 16 0
-9 -16 -17 0
13 14 -16 0
-3 7 -10 0
-15 16 20 0
3 7 -15 0
4 -7 -15 0
6 7 -13 0
8 -9 -14 0
3 8 13 0
2 12 -20 0
-6 -13 20 0
10 13 -16 0
11 14 20 0
-6 12 13 0
1 13 -16 0
11 -15 20 0
-4 7 11 0
-8 10 13 0
-5 -6 20 0
-2 4 -18 0
6 -9 20 0
8 13 -18 0
-6 12 -14 0
1 -4 13 0
-11 -15 -20 0
-7 16 20 0
-4 -9 -12 0
-1 10 -16 0
6 -16 -18 0
-5 9 12 0
-4 -19 20 0
11 13 -14 0
-7 -8 17 0
-7 15 -17 0
1 9 16 0
12 15 -18 0
-1 -4 12 0
9 13 -18 0
3 19 20 0
5 10 13 0
-6 13 -20 0
-11 13 -17 0
4 -18 20 0
9 16 20 0
9 13 -16 0
-14 17 -18 0
2 8 10 0
-1 -4 5 0
13 -16 19 0
1 -18 20 0
-5 6 -16 0
11 18 -19 0
8 10 -18 0
-14 -15 -19 0
2 13 -18 0
-12 13 -15 0
-13 -17 -20 0
1 5 10 0
11 15 19 0
-6 -8 18 0
6 -15 -16 0
2 6 -12 0
12 -17 20 0
-15 -17 20 0
-3 -8 16 0
2 4 -5 0
-5 -14 -17 0
13 17 18 0
4 8 9 0
2 9 -17 0
-1 14 15 0
6 -16 -20 0
4 -6 -11 0
-5 -10 20 0
-2 -11 -12 0
1 -7 -12 0
